outputs/case_111.model.txt
improvement_completed = True
violate_securities_law = True
violate_orders_issued_under_law = True
violate_other_regulations = False
fail_to_produce_or_report_documents = False
fail_to_submit_required_documents = False
obstruct_or_refuse_inspection = False
violate_specified_articles = False
violate_financial_or_management_rules = True
fail_to_execute_internal_control = True
internal_control_established_by_commission = False
internal_control_established_by_exchange = False
internal_control_change_notified = False
business_operated_according_to_law = True
business_operated_according_to_articles = True
business_operated_according_to_internal_control = False
internal_control_changed_within_deadline = False
penalty_fine_conditions = True
violation_of_law_or_orders = True
business_operated_according_to_law_and_internal_control = False
penalty = False
penalty_fine_imposed = False
penalty_applicable = True
internal_control_established = False
internal_control_updated_after_notification = True